NAME : XML100_3141_17
DIMENSION : 101
NB_CLUSTERS : 35
CLUSTERING_ALG : DBSCAN
CLUSTERING_PARAMS : eps(37), minSamples(3)
CLUSTERS
1 0
2 9 13 58 74 81
3 16 30 51 71 89
4 28 41 64 72
5 42 54 62 88
6 18 20 52 66 86 90 93
7 21 59
8 26 83
9 6 79
10 46 99
11 1 5 31 60
12 43 75
13 2 12 33
14 24 35
15 7 15 47 63 78
16 27 29 87 98
17 8 77
18 40 82
19 19 32 76
20 34 44 50 85
21 37 68
22 25 80
23 45 49 53
24 10 11 84
25 4 56 69 73
26 17 100
27 61 65 96
28 3 39
29 91 97
30 48 95
31 36 57 92
32 14 70
33 22 23
34 38 67
35 55 94
EOF